8242
26, 47, 13, 14, 52, 11, 51, 33, 43, 4, 6, 15, 5, 24, 48, 38, 40, 39, 36, 35, 34, 44, 16, 29, 50, 20, 23, 22, 1, 49, 32, 18, 31, 21, 30, 42, 2, 7, 17, 3, 41, 8, 9, 10, 19, 45, 37, 46, 25, 12, 28, 27
